200
120
100
99
99
99
99
98
97
97
97
97
97
97
97
96
96
95
95
95
95
95
94
93
93
93
92
92
92
91
91
90
90
88
88
88
88
87
86
85
84
84
84
84
83
83
81
79
79
79
78
78
77
76
76
75
74
74
73
73
73
72
72
72
71
71
71
70
70
70
69
69
68
68
67
67
66
65
64
64
63
63
60
60
60
59
58
58
58
58
57
56
56
55
55
54
53
53
52
52
51
51
51
50
50
50
49
49
48
48
48
47
47
47
45
45
43
43
42
42
41
41
41
40
40
40
39
38
38
37
37
36
36
35
35
35
35
35
34
33
33
32
32
31
30
29
29
27
26
25
25
24
24
24
23
23
23
23
21
20
20
20
20
20
19
18
17
17
16
16
16
14
14
13
13
13
13
13
12
12
11
11
10
10
9
9
8
8
8
8
7
6
6
6
5
4
4
3
3
2
2
1
